sat
(
  (define-fun ProcProv7 () Int
    2)
  (define-fun MemProv4 () Int
    3750)
  (define-fun StorageProv6 () Int
    2000)
  (define-fun C1_VM8 () Int
    1)
  (define-fun C2_VM5 () Int
    0)
  (define-fun C3_VM8 () Int
    0)
  (define-fun C5_VM6 () Int
    0)
  (define-fun C3_VM7 () Int
    0)
  (define-fun StorageProv2 () Int
    2000)
  (define-fun C4_VM6 () Int
    0)
  (define-fun VM4Type () Int
    37)
  (define-fun C3_VM1 () Int
    0)
  (define-fun C5_VM4 () Int
    0)
  (define-fun StorageProv5 () Int
    2000)
  (define-fun C1_VM5 () Int
    0)
  (define-fun C1_VM3 () Int
    1)
  (define-fun StorageProv4 () Int
    2000)
  (define-fun PriceProv4 () Int
    128)
  (define-fun C5_VM3 () Int
    0)
  (define-fun PriceProv7 () Int
    128)
  (define-fun MemProv1 () Int
    7500)
  (define-fun C3_VM4 () Int
    0)
  (define-fun ProcProv6 () Int
    2)
  (define-fun PriceProv6 () Int
    128)
  (define-fun C4_VM1 () Int
    0)
  (define-fun StorageProv1 () Int
    2000)
  (define-fun MemProv8 () Int
    3750)
  (define-fun StorageProv3 () Int
    2000)
  (define-fun MemProv5 () Int
    7500)
  (define-fun VM5Type () Int
    27)
  (define-fun StorageProv8 () Int
    2000)
  (define-fun MemProv7 () Int
    3750)
  (define-fun C1_VM7 () Int
    0)
  (define-fun C3_VM6 () Int
    0)
  (define-fun PriceProv8 () Int
    128)
  (define-fun PriceProv1 () Int
    252)
  (define-fun C3_VM2 () Int
    0)
  (define-fun C4_VM7 () Int
    0)
  (define-fun C4_VM3 () Int
    0)
  (define-fun C2_VM7 () Int
    1)
  (define-fun C4_VM2 () Int
    0)
  (define-fun C4_VM5 () Int
    1)
  (define-fun C4_VM8 () Int
    0)
  (define-fun C2_VM8 () Int
    0)
  (define-fun C1_VM1 () Int
    0)
  (define-fun ProcProv8 () Int
    2)
  (define-fun PriceProv2 () Int
    252)
  (define-fun VM3Type () Int
    37)
  (define-fun VM6Type () Int
    37)
  (define-fun ProcProv4 () Int
    2)
  (define-fun MemProv6 () Int
    3750)
  (define-fun MemProv3 () Int
    3750)
  (define-fun C1_VM4 () Int
    1)
  (define-fun C2_VM2 () Int
    0)
  (define-fun C1_VM6 () Int
    0)
  (define-fun StorageProv7 () Int
    2000)
  (define-fun C3_VM3 () Int
    0)
  (define-fun C5_VM7 () Int
    0)
  (define-fun C2_VM1 () Int
    0)
  (define-fun ProcProv5 () Int
    4)
  (define-fun PriceProv3 () Int
    128)
  (define-fun VM2Type () Int
    27)
  (define-fun C5_VM1 () Int
    1)
  (define-fun ProcProv3 () Int
    2)
  (define-fun C4_VM4 () Int
    0)
  (define-fun C1_VM2 () Int
    0)
  (define-fun C3_VM5 () Int
    0)
  (define-fun C2_VM3 () Int
    0)
  (define-fun ProcProv1 () Int
    4)
  (define-fun ProcProv2 () Int
    4)
  (define-fun VM8Type () Int
    37)
  (define-fun C5_VM5 () Int
    0)
  (define-fun C5_VM8 () Int
    0)
  (define-fun VM1Type () Int
    26)
  (define-fun VM7Type () Int
    37)
  (define-fun C2_VM6 () Int
    1)
  (define-fun C2_VM4 () Int
    0)
  (define-fun MemProv2 () Int
    7500)
  (define-fun C5_VM2 () Int
    1)
  (define-fun PriceProv5 () Int
    252)
)
(objectives
 ((+ 0
   PriceProv1
   PriceProv2
   PriceProv3
   PriceProv4
   PriceProv5
   PriceProv6
   PriceProv7
   PriceProv8) 1396)
)
(:added-eqs                   1470675
 :arith-eq-adapter            12257
 :arith-bound-propagations-lp 196224
 :arith-conflicts             292
 :arith-diseq                 1947285
 :arith-fixed-eqs             23112
 :arith-lower                 2599605
 :arith-make-feasible         146508
 :arith-max-columns           172
 :arith-max-rows              26
 :arith-upper                 1466583
 :binary-propagations         12077045
 :conflicts                   53898
 :decisions                   168310
 :del-clause                  257044
 :final-checks                177
 :max-memory                  69.06
 :memory                      69.06
 :minimized-lits              903182
 :mk-bool-var                 27064
 :mk-clause                   258935
 :mk-clause-binary            5863
 :num-allocs                  363155112
 :num-checks                  136
 :pb-conflicts                4535
 :pb-predicates               615
 :pb-propagations             69004
 :pb-resolves                 4357
 :propagations                25948443
 :restarts                    352
 :rlimit-count                88707474
 :time                        5.05
 :total-time                  5.05)
